Route #1: 1 5 28 20 38 24 40 9 23 29 33
Route #2: 1 25 15 18 11 12 37 3 7 19 21
Route #3: 1 44 17 14 30 27 8
Route #4: 1 2 6 31 43 26
Route #5: 1 36 45 41 34 16 4 35
Route #6: 1 39 22 32 10 42
cost 758
